c A SAT instance generated from a 3-CNF formula that had 30 clauses and 10 variables
p cnf 10 30
-3 -8 5 0
-5 -10 6 0
7 4 -1 0
-1 -3 -10 0
8 -10 2 0
-2 8 4 0
9 -4 -10 0
10 3 -6 0
-8 10 -4 0
2 5 6 0
5 8 -7 0
-8 -6 -2 0
4 -6 -1 0
2 -7 -3 0
-1 5 8 0
-3 -4 9 0
6 -3 1 0
3 -4 -10 0
-4 9 -8 0
-9 -7 5 0
6 8 -1 0
10 -4 -9 0
10 -4 -9 0
3 -10 2 0
-4 -8 -1 0
4 -8 -5 0
-7 -9 -10 0
10 8 4 0
7 -1 -4 0
2 -5 9 0
